(set-info :status unsat)
(declare-datatypes ((T 0)) ((
  (f0)
  (f1 (proj0f1 T) (proj1f1 T)))))
(assert (exists ((y10041 T) (y10042 T) (y10043 T) (y10044 T) (y10045 T) (y10046 T) (y10031 T) (y10030 T) (y10035 T) (y10034 T) (y10037 T) (y10039 T) (y10038 T) (y10028 T) (y10029 T)) (forall ((x10054 T) (x10055 T) (x10056 T) (x10057 T) (x10051 T) (x10052 T) (x10053 T) (x10049 T)) 
  (or 
    (and (= y10028 (f1 (f1 (f1 y10029 PLACEHOLDER) (f1 (f1 PLACEHOLDER PLACEHOLDER) (f1 PLACEHOLDER PLACEHOLDER))) (f1 (f1 PLACEHOLDER (f1 PLACEHOLDER PLACEHOLDER)) (f1 (f1 PLACEHOLDER PLACEHOLDER) (f1 PLACEHOLDER PLACEHOLDER))))) (= y10029 x10055) (= y10030 (f1 y10028 PLACEHOLDER))) 
    (and (= y10031 (f1 x10054 (f1 PLACEHOLDER PLACEHOLDER))) (= x10054 (f1 y10031 PLACEHOLDER))) (= x10056 (f1 x10056 PLACEHOLDER)) 
    (and (= y10034 (f1 y10035 PLACEHOLDER)) (= y10035 (f1 x10049 PLACEHOLDER)) (= x10049 (f1 y10037 (f1 PLACEHOLDER PLACEHOLDER))) (= y10037 (f1 y10034 PLACEHOLDER))) (= y10038 (f1 (f1 (f1 (f1 y10038 PLACEHOLDER) (f1 PLACEHOLDER PLACEHOLDER)) PLACEHOLDER) (f1 PLACEHOLDER PLACEHOLDER))) (= y10039 (f1 y10039 PLACEHOLDER)) (= x10057 (f1 x10057 PLACEHOLDER)) 
    (and (= y10041 (f1 (f1 y10042 PLACEHOLDER) (f1 PLACEHOLDER PLACEHOLDER))) (= y10042 (f1 y10043 PLACEHOLDER)) (= y10043 (f1 y10044 PLACEHOLDER)) (= y10044 x10053)) 
    (and (= y10045 x10052) (= y10046 (f1 y10045 PLACEHOLDER))) (= x10051 (f1 x10051 PLACEHOLDER))))))
(check-sat)
